(set-logic QF_LIA)
(declare-fun x0 () Int)
(declare-fun x1 () Int)
(declare-fun x2 () Int)
(declare-fun x3 () Int)
(declare-fun x4 () Int)
(declare-fun x5 () Int)
(declare-fun x6 () Int)
(declare-fun x7 () Int)
(declare-fun x8 () Int)
(declare-fun x9 () Int)
(declare-fun A0 () Bool)
(declare-fun A1 () Bool)
(declare-fun A2 () Bool)
(declare-fun A3 () Bool)
(declare-fun A4 () Bool)
(declare-fun A5 () Bool)
(declare-fun A6 () Bool)
(declare-fun A7 () Bool)
(declare-fun A8 () Bool)
(declare-fun A9 () Bool)
(assert (let ((.def_0 (* 1 x3))) (let ((.def_1 (< .def_0 (- 1)))) (let ((.def_2 (not .def_1))) (let ((.def_3 (not A7))) (let ((.def_4 (and .def_3 .def_2))) (let ((.def_5 (not .def_4))) (let ((.def_6 (* (- 1) x6))) (let ((.def_7 (* (- 1) x9))) (let ((.def_8 (+ .def_7 .def_6))) (let ((.def_9 (< .def_8 (- 1)))) (let ((.def_10 (not .def_9))) (let ((.def_11 (or .def_10 A9))) (let ((.def_12 (not .def_11))) (let ((.def_13 (or .def_12 .def_5))) (let ((.def_14 (* 1 x2))) (let ((.def_15 (< .def_14 1))) (let ((.def_16 (not .def_15))) (let ((.def_17 (* (- 1) x8))) (let ((.def_18 (* 1 x5))) (let ((.def_19 (+ .def_18 .def_17))) (let ((.def_20 (< .def_19 1))) (let ((.def_21 (not .def_20))) (let ((.def_22 (and .def_21 .def_16))) (let ((.def_23 (not .def_22))) (let ((.def_24 (* 1 x9))) (let ((.def_25 (* (- 1) x4))) (let ((.def_26 (+ .def_25 .def_24))) (let ((.def_27 (< .def_26 1))) (let ((.def_28 (not A9))) (let ((.def_29 (and .def_28 .def_27))) (let ((.def_30 (and .def_29 .def_23))) (let ((.def_31 (not .def_30))) (let ((.def_32 (= .def_31 .def_13))) (let ((.def_33 (not A5))) (let ((.def_34 (* 1 x8))) (let ((.def_35 (< .def_34 (- 1)))) (let ((.def_36 (not .def_35))) (let ((.def_37 (and .def_36 .def_33))) (let ((.def_38 (not .def_37))) (let ((.def_39 (* (- 1) x3))) (let ((.def_40 (< .def_39 1))) (let ((.def_41 (not .def_40))) (let ((.def_42 (< .def_7 1))) (let ((.def_43 (not .def_42))) (let ((.def_44 (or .def_43 .def_41))) (let ((.def_45 (not .def_44))) (let ((.def_46 (or .def_45 .def_38))) (let ((.def_47 (not A1))) (let ((.def_48 (not A8))) (let ((.def_49 (or .def_48 .def_47))) (let ((.def_50 (not A6))) (let ((.def_51 (and A2 .def_50))) (let ((.def_52 (not .def_51))) (let ((.def_53 (and .def_52 .def_49))) (let ((.def_54 (and .def_53 .def_46))) (let ((.def_55 (and .def_54 .def_32))) (let ((.def_56 (not .def_55))) (let ((.def_57 (+ .def_7 .def_17))) (let ((.def_58 (< .def_57 (- 1)))) (let ((.def_59 (not .def_58))) (let ((.def_60 (or A3 .def_59))) (let ((.def_61 (< .def_24 1))) (let ((.def_62 (* 1 x7))) (let ((.def_63 (+ .def_25 .def_62))) (let ((.def_64 (< .def_63 1))) (let ((.def_65 (or .def_64 .def_61))) (let ((.def_66 (not .def_65))) (let ((.def_67 (and .def_66 .def_60))) (let ((.def_68 (not .def_67))) (let ((.def_69 (* 1 x1))) (let ((.def_70 (+ .def_69 .def_7))) (let ((.def_71 (< .def_70 (- 1)))) (let ((.def_72 (not A3))) (let ((.def_73 (and .def_72 .def_71))) (let ((.def_74 (+ .def_18 .def_0))) (let ((.def_75 (< .def_74 (- 1)))) (let ((.def_76 (or .def_75 A7))) (let ((.def_77 (or .def_76 .def_73))) (let ((.def_78 (not .def_77))) (let ((.def_79 (and .def_78 .def_68))) (let ((.def_80 (or A0 A9))) (let ((.def_81 (< .def_34 1))) (let ((.def_82 (not .def_81))) (let ((.def_83 (not A4))) (let ((.def_84 (or .def_83 .def_82))) (let ((.def_85 (not .def_84))) (let ((.def_86 (or .def_85 .def_80))) (let ((.def_87 (* (- 1) x2))) (let ((.def_88 (< .def_87 1))) (let ((.def_89 (and .def_88 .def_88))) (let ((.def_90 (not .def_89))) (let ((.def_91 (+ .def_62 .def_7))) (let ((.def_92 (< .def_91 (- 1)))) (let ((.def_93 (* 1 x4))) (let ((.def_94 (+ .def_93 .def_0))) (let ((.def_95 (< .def_94 1))) (let ((.def_96 (or .def_95 .def_92))) (let ((.def_97 (not .def_96))) (let ((.def_98 (or .def_97 .def_90))) (let ((.def_99 (or .def_98 .def_86))) (let ((.def_100 (not .def_99))) (let ((.def_101 (or .def_100 .def_79))) (let ((.def_102 (or .def_101 .def_56))) (let ((.def_103 (< .def_6 1))) (let ((.def_104 (not .def_103))) (let ((.def_105 (or A2 .def_104))) (let ((.def_106 (+ .def_34 .def_25))) (let ((.def_107 (< .def_106 (- 1)))) (let ((.def_108 (and .def_83 .def_107))) (let ((.def_109 (not .def_108))) (let ((.def_110 (or .def_109 .def_105))) (let ((.def_111 (not .def_110))) (let ((.def_112 (= A7 A8))) (let ((.def_113 (not A0))) (let ((.def_114 (+ .def_34 .def_93))) (let ((.def_115 (< .def_114 1))) (let ((.def_116 (and .def_115 .def_113))) (let ((.def_117 (not .def_116))) (let ((.def_118 (or .def_117 .def_112))) (let ((.def_119 (not .def_118))) (let ((.def_120 (and .def_119 .def_111))) (let ((.def_121 (not .def_120))) (let ((.def_122 (+ .def_93 .def_6))) (let ((.def_123 (< .def_122 (- 1)))) (let ((.def_124 (not .def_123))) (let ((.def_125 (or .def_124 A2))) (let ((.def_126 (not .def_125))) (let ((.def_127 (+ .def_7 .def_18))) (let ((.def_128 (< .def_127 (- 1)))) (let ((.def_129 (not .def_128))) (let ((.def_130 (and A8 .def_129))) (let ((.def_131 (not .def_130))) (let ((.def_132 (and .def_131 .def_126))) (let ((.def_133 (not .def_132))) (let ((.def_134 (< .def_0 1))) (let ((.def_135 (not .def_134))) (let ((.def_136 (and .def_135 .def_83))) (let ((.def_137 (not .def_136))) (let ((.def_138 (< .def_18 1))) (let ((.def_139 (not .def_138))) (let ((.def_140 (* (- 1) x5))) (let ((.def_141 (* (- 1) x0))) (let ((.def_142 (+ .def_141 .def_140))) (let ((.def_143 (< .def_142 1))) (let ((.def_144 (not .def_143))) (let ((.def_145 (and .def_144 .def_139))) (let ((.def_146 (or .def_145 .def_137))) (let ((.def_147 (not .def_146))) (let ((.def_148 (and .def_147 .def_133))) (let ((.def_149 (not .def_148))) (let ((.def_150 (or .def_149 .def_121))) (let ((.def_151 (or A1 .def_3))) (let ((.def_152 (and A1 .def_83))) (let ((.def_153 (not .def_152))) (let ((.def_154 (= .def_153 .def_151))) (let ((.def_155 (not .def_154))) (let ((.def_156 (+ .def_7 .def_14))) (let ((.def_157 (< .def_156 (- 1)))) (let ((.def_158 (not .def_157))) (let ((.def_159 (* 1 x6))) (let ((.def_160 (< .def_159 1))) (let ((.def_161 (not .def_160))) (let ((.def_162 (or .def_161 .def_158))) (let ((.def_163 (or .def_50 A2))) (let ((.def_164 (and .def_163 .def_162))) (let ((.def_165 (not .def_164))) (let ((.def_166 (or .def_165 .def_155))) (let ((.def_167 (and .def_113 .def_72))) (let ((.def_168 (not .def_167))) (let ((.def_169 (and .def_28 .def_40))) (let ((.def_170 (= .def_169 .def_168))) (let ((.def_171 (not .def_170))) (let ((.def_172 (+ .def_34 .def_18))) (let ((.def_173 (< .def_172 (- 1)))) (let ((.def_174 (not .def_173))) (let ((.def_175 (or .def_174 A9))) (let ((.def_176 (not .def_175))) (let ((.def_177 (or .def_3 A8))) (let ((.def_178 (not .def_177))) (let ((.def_179 (or .def_178 .def_176))) (let ((.def_180 (or .def_179 .def_171))) (let ((.def_181 (not .def_180))) (let ((.def_182 (and .def_181 .def_166))) (let ((.def_183 (not .def_182))) (let ((.def_184 (and .def_183 .def_150))) (let ((.def_185 (= .def_184 .def_102))) (let ((.def_186 (not .def_185))) (let ((.def_187 (<= x9 1))) (let ((.def_188 (<= 0 x9))) (let ((.def_189 (<= x8 1))) (let ((.def_190 (<= 0 x8))) (let ((.def_191 (<= x7 1))) (let ((.def_192 (<= 0 x7))) (let ((.def_193 (<= x6 1))) (let ((.def_194 (<= 0 x6))) (let ((.def_195 (<= x5 1))) (let ((.def_196 (<= 0 x5))) (let ((.def_197 (<= x4 1))) (let ((.def_198 (<= 0 x4))) (let ((.def_199 (<= x3 1))) (let ((.def_200 (<= 0 x3))) (let ((.def_201 (<= x2 1))) (let ((.def_202 (<= 0 x2))) (let ((.def_203 (<= x1 1))) (let ((.def_204 (<= 0 x1))) (let ((.def_205 (<= x0 1))) (let ((.def_206 (<= 0 x0))) (let ((.def_207 (and .def_206 .def_205 .def_204 .def_203 .def_202 .def_201 .def_200 .def_199 .def_198 .def_197 .def_196 .def_195 .def_194 .def_193 .def_192 .def_191 .def_190 .def_189 .def_188 .def_187 .def_186))) .def_207)))))))))))))))))))))))))))))))))))))))))))))))))))))))))))))))))))))))))))))))))))))))))))))))))))))))))))))))))))))))))))))))))))))))))))))))))))))))))))))))))))))))))))))))))))))))))))))))))))))))))))))))))
(check-sat)
